c status 40 1469386636884
c status 32 1469386636884
c status 31 1469386636887
c status 30 1469386636919
s td 17 30 49
b 1 2 11 45 7 9 47 31 35 21 24 48 13 49 26 18 34
b 2 6 14 39 5 12 45 47 20 31 35 46 48 3 27 49 22 34
b 3 14 39 5 12 11 45 7 9 8 47 20 31 35 21 24 29 46 48 3 27 10 49 22 36 34
b 4 38 37 39 5 12 9 33 47 31 35 21 30 29 19 32 36 34
b 5 37 39 5 12 11 9 33 8 47 20 31 35 21 30 24 29 19 32 46 3 27 22 36 18 34
b 6 39 5 12 11 45 7 9 33 8 47 20 31 35 21 30 24 29 19 32 46 48 3 27 10 49 22 36 18 34 1
b 7 5 12 11 45 7 9 33 8 47 20 31 35 21 30 24 29 19 32 46 48 3 27 10 49 22 26 36 18 34 1
b 8 12 11 45 7 9 33 8 47 20 31 35 21 30 24 29 19 32 46 48 3 27 10 13 49 22 26 36 18 34 1
b 9 11 45 7 9 33 8 47 20 31 35 21 30 24 29 19 32 46 48 3 27 10 13 49 22 26 36 18 34 1 4
b 10 15 17 23 25 7 8 20 21 19 32 46 48 13 22 18 34 1
b 11 17 23 25 7 9 33 8 47 20 21 24 19 32 46 48 13 49 22 26 36 18 34 1 4
b 12 23 25 7 9 33 8 47 20 31 21 30 24 29 19 32 46 48 27 13 49 22 26 36 18 34 1 4
b 13 25 7 9 33 8 47 20 31 35 21 30 24 29 19 32 46 48 3 27 10 13 49 22 26 36 18 34 1 4
b 14 40 16 28 41 42 1 4
b 15 44 43 16 1 4
b 16 16 28 41 42 22 26 18 34 1 4
b 17 28 41 42 22 26 36 18 34 1 4
1 8
8 7
8 9
7 6
9 13
13 12
6 3
6 5
12 11
11 10
5 4
3 2
12 17
17 16
16 14
14 15
